65 58 59 25 23 49 20 66 
2 45 12 14 11 53 60 70 
31 30 38 39 43 55 
69 52 13 15 47 17 10 24 
64 22 19 21 18 57 74 56 
63 62 67 71 44 42 35 
36 28 27 34 32 
72 41 61 7 6 46 4 1 68 
9 16 73 54 
33 29 51 50 
5 8 3 40 
75 48 
26 
37 

